(set-info :smt-lib-version 2.6)
(set-logic QF_UF)
(set-info :source |
Generated by: Aman Goel (amangoel@umich.edu), Karem A. Sakallah (karem@umich.edu)
Generated on: 2018-04-06

Generated by the tool Averroes 2 (successor of [1]) which implements safety property
verification on hardware systems.

This SMT problem belongs to a set of SMT problems generated by applying Averroes 2
to benchmarks derived from [2-5].

A total of 412 systems (345 from [2], 19 from [3], 26 from [4], 22 from [5]) were
syntactically converted from their original formats (using [6, 7]), and given to 
Averroes 2 to perform property checking with abstraction (wide bit-vectors -> terms, 
wide operators -> UF) using SMT solvers [8, 9].

[1] Lee S., Sakallah K.A. (2014) Unbounded Scalable Verification Based on Approximate
Property-Directed Reachability and Datapath Abstraction. In: Biere A., Bloem R. (eds)
Computer Aided Verification. CAV 2014. Lecture Notes in Computer Science, vol 8559.
Springer, Cham
[2] http://fmv.jku.at/aiger/index.html#beem
[3] http://www.cs.cmu.edu/~modelcheck/vcegar
[4] http://www.cprover.org/hardware/v2c
[5] http://github.com/aman-goel/verilogbench
[6] http://www.clifford.at/yosys
[7] http://github.com/chengyinwu/V3
[8] http://github.com/Z3Prover/z3
[9] http://github.com/SRI-CSL/yices2

id: Huffman_dec
query-maker: "Yices 2"
query-time: 2.450000 ms
query-class: abstract
query-category: oneshot
query-type: regular
status: sat
|)
(set-info :license "https://creativecommons.org/licenses/by/4.0/")
(set-info :category "industrial")

;
(set-info :status sat)
(declare-sort utt$5 0)
(declare-sort utt$8 0)
(declare-sort utt$9 0)
(declare-sort utt$10 0)
(declare-sort utt$22 0)
(declare-sort utt$23 0)
(declare-sort utt$24 0)
(declare-sort utt$27 0)
(declare-sort utt$32 0)
(declare-fun Add_32_32_32 (utt$32 utt$32 ) utt$32)
(declare-fun Concat_10_9_1 (utt$9 Bool ) utt$10)
(declare-fun Concat_32_10_22 (utt$10 utt$22 ) utt$32)
(declare-fun Concat_32_1_9_22 (Bool utt$9 utt$22 ) utt$32)
(declare-fun Concat_32_5_27 (utt$5 utt$27 ) utt$32)
(declare-fun Concat_32_8_24 (utt$8 utt$24 ) utt$32)
(declare-fun Concat_32_9_23 (utt$9 utt$23 ) utt$32)
(declare-fun Extract_10_9_0_32 (utt$32 ) utt$10)
(declare-fun Extract_1_0_0_10 (utt$10 ) Bool)
(declare-fun Extract_8_7_0_32 (utt$32 ) utt$8)
(declare-fun Extract_9_8_0_10 (utt$10 ) utt$9)
(declare-fun Extract_9_9_1_10 (utt$10 ) utt$9)
(declare-fun Le_1_32_32 (utt$32 utt$32 ) Bool)
(declare-fun y$11 () Bool)
(declare-fun y$139 () utt$8)
(declare-fun y$14 () Bool)
(declare-fun y$17 () Bool)
(declare-fun y$2 () Bool)
(declare-fun y$20 () Bool)
(declare-fun y$222 () utt$8)
(declare-fun y$223 () utt$8)
(declare-fun y$224 () utt$8)
(declare-fun y$225 () utt$8)
(declare-fun y$226 () utt$8)
(declare-fun y$227 () utt$8)
(declare-fun y$228 () utt$8)
(declare-fun y$229 () utt$8)
(declare-fun y$23 () Bool)
(declare-fun y$230 () utt$8)
(declare-fun y$231 () utt$8)
(declare-fun y$232 () utt$8)
(declare-fun y$233 () utt$8)
(declare-fun y$234 () utt$8)
(declare-fun y$235 () utt$8)
(declare-fun y$236 () utt$8)
(declare-fun y$237 () utt$8)
(declare-fun y$238 () utt$8)
(declare-fun y$239 () utt$8)
(declare-fun y$240 () utt$8)
(declare-fun y$241 () utt$8)
(declare-fun y$242 () utt$8)
(declare-fun y$243 () utt$8)
(declare-fun y$244 () utt$8)
(declare-fun y$245 () utt$8)
(declare-fun y$246 () utt$8)
(declare-fun y$247 () utt$8)
(declare-fun y$248 () utt$8)
(declare-fun y$253 () Bool)
(declare-fun y$255 () utt$9)
(declare-fun y$26 () Bool)
(declare-fun y$262 () Bool)
(declare-fun y$270 () utt$10)
(declare-fun y$272 () Bool)
(declare-fun y$274 () utt$9)
(declare-fun y$279 () Bool)
(declare-fun y$29 () Bool)
(declare-fun y$290 () utt$8)
(declare-fun y$291 () utt$8)
(declare-fun y$292 () utt$8)
(declare-fun y$296 () Bool)
(declare-fun y$298 () Bool)
(declare-fun y$300 () Bool)
(declare-fun y$302 () Bool)
(declare-fun y$304 () Bool)
(declare-fun y$306 () Bool)
(declare-fun y$308 () Bool)
(declare-fun y$310 () Bool)
(declare-fun y$312 () Bool)
(declare-fun y$314 () Bool)
(declare-fun y$316 () Bool)
(declare-fun y$318 () Bool)
(declare-fun y$32 () Bool)
(declare-fun y$320 () Bool)
(declare-fun y$322 () Bool)
(declare-fun y$324 () Bool)
(declare-fun y$326 () Bool)
(declare-fun y$328 () Bool)
(declare-fun y$330 () Bool)
(declare-fun y$332 () Bool)
(declare-fun y$334 () Bool)
(declare-fun y$336 () Bool)
(declare-fun y$338 () Bool)
(declare-fun y$340 () Bool)
(declare-fun y$342 () Bool)
(declare-fun y$344 () Bool)
(declare-fun y$346 () Bool)
(declare-fun y$348 () Bool)
(declare-fun y$35 () Bool)
(declare-fun y$37 () Bool)
(declare-fun y$40 () Bool)
(declare-fun y$408 () Bool)
(declare-fun y$409 () Bool)
(declare-fun y$414 () Bool)
(declare-fun y$415 () Bool)
(declare-fun y$423 () Bool)
(declare-fun y$424 () Bool)
(declare-fun y$427 () Bool)
(declare-fun y$428 () Bool)
(declare-fun y$429 () Bool)
(declare-fun y$43 () Bool)
(declare-fun y$430 () Bool)
(declare-fun y$431 () Bool)
(declare-fun y$432 () Bool)
(declare-fun y$433 () Bool)
(declare-fun y$434 () Bool)
(declare-fun y$435 () Bool)
(declare-fun y$436 () Bool)
(declare-fun y$437 () Bool)
(declare-fun y$438 () Bool)
(declare-fun y$439 () Bool)
(declare-fun y$440 () Bool)
(declare-fun y$441 () Bool)
(declare-fun y$442 () Bool)
(declare-fun y$443 () Bool)
(declare-fun y$444 () Bool)
(declare-fun y$445 () Bool)
(declare-fun y$446 () Bool)
(declare-fun y$447 () Bool)
(declare-fun y$448 () Bool)
(declare-fun y$449 () Bool)
(declare-fun y$450 () Bool)
(declare-fun y$451 () Bool)
(declare-fun y$452 () Bool)
(declare-fun y$453 () Bool)
(declare-fun y$46 () Bool)
(declare-fun y$49 () Bool)
(declare-fun y$508 () utt$8)
(declare-fun y$52 () Bool)
(declare-fun y$535 () utt$8)
(declare-fun y$536 () utt$8)
(declare-fun y$537 () utt$8)
(declare-fun y$538 () utt$8)
(declare-fun y$539 () utt$8)
(declare-fun y$54 () Bool)
(declare-fun y$540 () utt$8)
(declare-fun y$541 () utt$8)
(declare-fun y$542 () utt$8)
(declare-fun y$543 () utt$8)
(declare-fun y$544 () utt$8)
(declare-fun y$545 () utt$8)
(declare-fun y$546 () utt$8)
(declare-fun y$547 () utt$8)
(declare-fun y$548 () utt$8)
(declare-fun y$549 () utt$8)
(declare-fun y$550 () utt$8)
(declare-fun y$551 () utt$8)
(declare-fun y$552 () utt$8)
(declare-fun y$553 () utt$8)
(declare-fun y$554 () utt$8)
(declare-fun y$555 () utt$8)
(declare-fun y$556 () utt$8)
(declare-fun y$557 () utt$8)
(declare-fun y$558 () utt$8)
(declare-fun y$559 () utt$8)
(declare-fun y$560 () utt$8)
(declare-fun y$561 () utt$8)
(declare-fun y$565 () Bool)
(declare-fun y$566 () Bool)
(declare-fun y$567 () Bool)
(declare-fun y$57 () Bool)
(declare-fun y$60 () Bool)
(declare-fun y$62 () Bool)
(declare-fun y$65 () Bool)
(declare-fun y$68 () Bool)
(declare-fun y$71 () Bool)
(declare-fun y$715 () Bool)
(declare-fun y$716 () Bool)
(declare-fun y$717 () Bool)
(declare-fun y$718 () Bool)
(declare-fun y$719 () Bool)
(declare-fun y$720 () Bool)
(declare-fun y$74 () Bool)
(declare-fun y$77 () Bool)
(declare-fun y$783 () Bool)
(declare-fun y$784 () Bool)
(declare-fun y$785 () Bool)
(declare-fun y$786 () Bool)
(declare-fun y$787 () Bool)
(declare-fun y$8 () Bool)
(declare-fun y$80 () Bool)
(declare-fun y$82 () Bool)
(declare-fun y$addr () utt$5)
(declare-fun y$decoder.plain () utt$8)
(declare-fun y$decoder.plain$next () utt$8)
(declare-fun y$decoder.state () utt$10)
(declare-fun y$decoder.state$next () utt$10)
(declare-fun y$decoder.state$next_rhs () utt$10)
(declare-fun y$encoder.shiftreg () utt$10)
(declare-fun y$encoder.shiftreg$next () utt$10)
(declare-fun y$encoder.shiftreg$next_rhs () utt$10)
(declare-fun y$encoder.shiftreg$next_rhs_op () utt$10)
(declare-fun y$n0s1 () Bool)
(declare-fun y$n0s10 () utt$10)
(declare-fun y$n0s22 () utt$22)
(declare-fun y$n0s23 () utt$23)
(declare-fun y$n0s24 () utt$24)
(declare-fun y$n0s27 () utt$27)
(declare-fun y$n0s32 () utt$32)
(declare-fun y$n0s8 () utt$8)
(declare-fun y$n108s10 () utt$10)
(declare-fun y$n10s10 () utt$10)
(declare-fun y$n118s10 () utt$10)
(declare-fun y$n119s10 () utt$10)
(declare-fun y$n11s10 () utt$10)
(declare-fun y$n122s32 () utt$32)
(declare-fun y$n13s32 () utt$32)
(declare-fun y$n151s10 () utt$10)
(declare-fun y$n17s10 () utt$10)
(declare-fun y$n17s32 () utt$32)
(declare-fun y$n1s32 () utt$32)
(declare-fun y$n20s10 () utt$10)
(declare-fun y$n215s10 () utt$10)
(declare-fun y$n21s10 () utt$10)
(declare-fun y$n22s32 () utt$32)
(declare-fun y$n23s32 () utt$32)
(declare-fun y$n243s32 () utt$32)
(declare-fun y$n244s32 () utt$32)
(declare-fun y$n24s32 () utt$32)
(declare-fun y$n255s32 () utt$32)
(declare-fun y$n25s10 () utt$10)
(declare-fun y$n25s32 () utt$32)
(declare-fun y$n268s10 () utt$10)
(declare-fun y$n26s32 () utt$32)
(declare-fun y$n29s10 () utt$10)
(declare-fun y$n2s32 () utt$32)
(declare-fun y$n303s32 () utt$32)
(declare-fun y$n305s32 () utt$32)
(declare-fun y$n306s32 () utt$32)
(declare-fun y$n30s10 () utt$10)
(declare-fun y$n30s32 () utt$32)
(declare-fun y$n31s10 () utt$10)
(declare-fun y$n31s32 () utt$32)
(declare-fun y$n32s10 () utt$10)
(declare-fun y$n32s32 () utt$32)
(declare-fun y$n32s8 () utt$8)
(declare-fun y$n332s10 () utt$10)
(declare-fun y$n33s32 () utt$32)
(declare-fun y$n34s32 () utt$32)
(declare-fun y$n38s10 () utt$10)
(declare-fun y$n38s32 () utt$32)
(declare-fun y$n39s10 () utt$10)
(declare-fun y$n40s10 () utt$10)
(declare-fun y$n43s32 () utt$32)
(declare-fun y$n460s10 () utt$10)
(declare-fun y$n48s10 () utt$10)
(declare-fun y$n56s10 () utt$10)
(declare-fun y$n59s32 () utt$32)
(declare-fun y$n609s32 () utt$32)
(declare-fun y$n60s10 () utt$10)
(declare-fun y$n610s32 () utt$32)
(declare-fun y$n652s10 () utt$10)
(declare-fun y$n65s32 () utt$32)
(declare-fun y$n65s8 () utt$8)
(declare-fun y$n66s32 () utt$32)
(declare-fun y$n66s8 () utt$8)
(declare-fun y$n67s32 () utt$32)
(declare-fun y$n67s8 () utt$8)
(declare-fun y$n68s32 () utt$32)
(declare-fun y$n68s8 () utt$8)
(declare-fun y$n69s32 () utt$32)
(declare-fun y$n69s8 () utt$8)
(declare-fun y$n70s32 () utt$32)
(declare-fun y$n70s8 () utt$8)
(declare-fun y$n71s32 () utt$32)
(declare-fun y$n71s8 () utt$8)
(declare-fun y$n72s32 () utt$32)
(declare-fun y$n72s8 () utt$8)
(declare-fun y$n73s32 () utt$32)
(declare-fun y$n73s8 () utt$8)
(declare-fun y$n74s32 () utt$32)
(declare-fun y$n74s8 () utt$8)
(declare-fun y$n75s32 () utt$32)
(declare-fun y$n75s8 () utt$8)
(declare-fun y$n76s32 () utt$32)
(declare-fun y$n76s8 () utt$8)
(declare-fun y$n77s32 () utt$32)
(declare-fun y$n77s8 () utt$8)
(declare-fun y$n78s32 () utt$32)
(declare-fun y$n78s8 () utt$8)
(declare-fun y$n79s32 () utt$32)
(declare-fun y$n79s8 () utt$8)
(declare-fun y$n80s32 () utt$32)
(declare-fun y$n80s8 () utt$8)
(declare-fun y$n81s32 () utt$32)
(declare-fun y$n81s8 () utt$8)
(declare-fun y$n82s32 () utt$32)
(declare-fun y$n82s8 () utt$8)
(declare-fun y$n83s32 () utt$32)
(declare-fun y$n83s8 () utt$8)
(declare-fun y$n84s32 () utt$32)
(declare-fun y$n84s8 () utt$8)
(declare-fun y$n85s32 () utt$32)
(declare-fun y$n85s8 () utt$8)
(declare-fun y$n86s10 () utt$10)
(declare-fun y$n86s32 () utt$32)
(declare-fun y$n86s8 () utt$8)
(declare-fun y$n87s32 () utt$32)
(declare-fun y$n87s8 () utt$8)
(declare-fun y$n88s32 () utt$32)
(declare-fun y$n88s8 () utt$8)
(declare-fun y$n89s32 () utt$32)
(declare-fun y$n89s8 () utt$8)
(declare-fun y$n908s10 () utt$10)
(declare-fun y$n90s32 () utt$32)
(declare-fun y$n90s8 () utt$8)
(declare-fun y$n9s32 () utt$32)
(declare-fun y$prop () Bool)
(declare-fun y$prop$next () Bool)
(declare-fun y$s$100 () utt$10)
(declare-fun y$s$100_op () utt$10)
(declare-fun y$s$101 () utt$10)
(declare-fun y$s$101_op () utt$10)
(declare-fun y$s$102 () utt$10)
(declare-fun y$s$102_op () utt$10)
(declare-fun y$s$103 () utt$10)
(declare-fun y$s$103_op () utt$10)
(declare-fun y$s$104 () utt$10)
(declare-fun y$s$104_op () utt$10)
(declare-fun y$s$105 () utt$10)
(declare-fun y$s$105_op () utt$10)
(declare-fun y$s$106 () utt$10)
(declare-fun y$s$106_op () utt$10)
(declare-fun y$s$107 () utt$10)
(declare-fun y$s$107_op () utt$10)
(declare-fun y$s$108 () utt$10)
(declare-fun y$s$108_op () utt$10)
(declare-fun y$s$109 () utt$10)
(declare-fun y$s$109_op () utt$10)
(declare-fun y$s$110 () utt$10)
(declare-fun y$s$110_op () utt$10)
(declare-fun y$s$111 () utt$10)
(declare-fun y$s$111_op () utt$10)
(declare-fun y$s$112 () utt$10)
(declare-fun y$s$112_op () utt$10)
(declare-fun y$s$113 () utt$10)
(declare-fun y$s$113_op () utt$10)
(declare-fun y$s$114 () utt$10)
(declare-fun y$s$114_op () utt$10)
(declare-fun y$s$115 () utt$10)
(declare-fun y$s$115_op () utt$10)
(declare-fun y$s$116 () utt$10)
(declare-fun y$s$116_op () utt$10)
(declare-fun y$s$117 () utt$32)
(declare-fun y$s$117_op () utt$32)
(declare-fun y$s$30 () utt$32)
(declare-fun y$s$30$next () utt$32)
(declare-fun y$s$30$next_op () utt$32)
(declare-fun y$s$30_op () utt$32)
(declare-fun y$s$31 () utt$32)
(declare-fun y$s$31$next () utt$32)
(declare-fun y$s$31$next_op () utt$32)
(declare-fun y$s$31_op () utt$32)
(declare-fun y$s$32 () utt$32)
(declare-fun y$s$32$next () utt$32)
(declare-fun y$s$32$next_op () utt$32)
(declare-fun y$s$32_op () utt$32)
(declare-fun y$s$33 () utt$32)
(declare-fun y$s$33$next () utt$32)
(declare-fun y$s$33$next_op () utt$32)
(declare-fun y$s$33_op () utt$32)
(declare-fun y$s$34 () utt$32)
(declare-fun y$s$34$next () utt$32)
(declare-fun y$s$34$next_op () utt$32)
(declare-fun y$s$34_op () utt$32)
(declare-fun y$s$35 () utt$32)
(declare-fun y$s$35$next () utt$32)
(declare-fun y$s$35$next_op () utt$32)
(declare-fun y$s$35_op () utt$32)
(declare-fun y$s$36 () utt$32)
(declare-fun y$s$36$next () utt$32)
(declare-fun y$s$36$next_op () utt$32)
(declare-fun y$s$36_op () utt$32)
(declare-fun y$s$37 () utt$32)
(declare-fun y$s$37$next () utt$32)
(declare-fun y$s$37$next_op () utt$32)
(declare-fun y$s$37_op () utt$32)
(declare-fun y$s$38 () utt$32)
(declare-fun y$s$38$next () utt$32)
(declare-fun y$s$38$next_op () utt$32)
(declare-fun y$s$38_op () utt$32)
(declare-fun y$s$39 () utt$32)
(declare-fun y$s$39$next () utt$32)
(declare-fun y$s$39$next_op () utt$32)
(declare-fun y$s$39_op () utt$32)
(declare-fun y$s$40 () utt$32)
(declare-fun y$s$40$next () utt$32)
(declare-fun y$s$40$next_op () utt$32)
(declare-fun y$s$40_op () utt$32)
(declare-fun y$s$41 () utt$32)
(declare-fun y$s$41$next () utt$32)
(declare-fun y$s$41$next_op () utt$32)
(declare-fun y$s$41_op () utt$32)
(declare-fun y$s$42 () utt$32)
(declare-fun y$s$42$next () utt$32)
(declare-fun y$s$42$next_op () utt$32)
(declare-fun y$s$42_op () utt$32)
(declare-fun y$s$43 () utt$32)
(declare-fun y$s$43$next () utt$32)
(declare-fun y$s$43$next_op () utt$32)
(declare-fun y$s$43_op () utt$32)
(declare-fun y$s$44 () utt$32)
(declare-fun y$s$44$next () utt$32)
(declare-fun y$s$44$next_op () utt$32)
(declare-fun y$s$44_op () utt$32)
(declare-fun y$s$46 () utt$32)
(declare-fun y$s$46$next () utt$32)
(declare-fun y$s$46$next_op () utt$32)
(declare-fun y$s$46_op () utt$32)
(declare-fun y$s$47 () utt$32)
(declare-fun y$s$47$next () utt$32)
(declare-fun y$s$47$next_op () utt$32)
(declare-fun y$s$47_op () utt$32)
(declare-fun y$s$48 () utt$32)
(declare-fun y$s$48$next () utt$32)
(declare-fun y$s$48$next_op () utt$32)
(declare-fun y$s$48_op () utt$32)
(declare-fun y$s$49 () utt$32)
(declare-fun y$s$49$next () utt$32)
(declare-fun y$s$49$next_op () utt$32)
(declare-fun y$s$49_op () utt$32)
(declare-fun y$s$50 () utt$32)
(declare-fun y$s$50$next () utt$32)
(declare-fun y$s$50$next_op () utt$32)
(declare-fun y$s$50_op () utt$32)
(declare-fun y$s$51 () utt$32)
(declare-fun y$s$51$next () utt$32)
(declare-fun y$s$51$next_op () utt$32)
(declare-fun y$s$51_op () utt$32)
(declare-fun y$s$52 () utt$32)
(declare-fun y$s$52$next () utt$32)
(declare-fun y$s$52$next_op () utt$32)
(declare-fun y$s$52_op () utt$32)
(declare-fun y$s$53 () utt$32)
(declare-fun y$s$53$next () utt$32)
(declare-fun y$s$53$next_op () utt$32)
(declare-fun y$s$53_op () utt$32)
(declare-fun y$s$54 () utt$32)
(declare-fun y$s$54$next () utt$32)
(declare-fun y$s$54$next_op () utt$32)
(declare-fun y$s$54_op () utt$32)
(declare-fun y$s$55 () utt$32)
(declare-fun y$s$55$next () utt$32)
(declare-fun y$s$55$next_op () utt$32)
(declare-fun y$s$55_op () utt$32)
(declare-fun y$s$56 () utt$32)
(declare-fun y$s$56$next () utt$32)
(declare-fun y$s$56$next_op () utt$32)
(declare-fun y$s$56_op () utt$32)
(declare-fun y$s$57 () utt$32)
(declare-fun y$s$57_op () utt$32)
(declare-fun y$s$58 () utt$32)
(declare-fun y$s$58_op () utt$32)
(declare-fun y$s$60 () utt$32)
(declare-fun y$s$60_op () utt$32)
(declare-fun y$s$89 () Bool)
(declare-fun y$s$89_op () Bool)
(declare-fun y$s$90 () utt$10)
(declare-fun y$s$90_op () utt$10)
(declare-fun y$s$91 () utt$10)
(declare-fun y$s$91_op () utt$10)
(declare-fun y$s$92 () utt$10)
(declare-fun y$s$92_op () utt$10)
(declare-fun y$s$93 () utt$10)
(declare-fun y$s$93_op () utt$10)
(declare-fun y$s$94 () utt$10)
(declare-fun y$s$94_op () utt$10)
(declare-fun y$s$95 () utt$10)
(declare-fun y$s$95_op () utt$10)
(declare-fun y$s$96 () utt$10)
(declare-fun y$s$96_op () utt$10)
(declare-fun y$s$97 () utt$10)
(declare-fun y$s$97_op () utt$10)
(declare-fun y$s$98 () utt$10)
(declare-fun y$s$98_op () utt$10)
(declare-fun y$s$99 () utt$10)
(declare-fun y$s$99_op () utt$10)
(declare-fun y$w$1 () utt$32)
(declare-fun y$w$1$next () utt$32)
(declare-fun y$w$1$next_op () utt$32)
(declare-fun y$w$10 () utt$9)
(declare-fun y$w$11 () utt$32)
(declare-fun y$w$11_op () utt$32)
(declare-fun y$w$12 () utt$32)
(declare-fun y$w$12_op () utt$32)
(declare-fun y$w$13 () utt$10)
(declare-fun y$w$13_op () utt$10)
(declare-fun y$w$1_op () utt$32)
(declare-fun y$w$2 () utt$32)
(declare-fun y$w$2$next () utt$32)
(declare-fun y$w$2$next_op () utt$32)
(declare-fun y$w$2_op () utt$32)
(declare-fun y$w$3 () utt$32)
(declare-fun y$w$3_op () utt$32)
(declare-fun y$w$4 () utt$8)
(declare-fun y$w$5 () utt$32)
(declare-fun y$w$5_op () utt$32)
(declare-fun y$w$6 () utt$32)
(declare-fun y$w$6$next () utt$32)
(declare-fun y$w$6$next_op () utt$32)
(declare-fun y$w$6_op () utt$32)
(declare-fun y$w$7 () utt$9)
(declare-fun y$w$8 () utt$32)
(declare-fun y$w$8_op () utt$32)
(declare-fun y$w$9 () Bool)
(assert (distinct y$n69s8 y$n32s8 y$n83s8 y$n65s8 y$n73s8 y$n79s8 y$n82s8 y$n78s8 y$n84s8 y$n85s8 y$n80s8 y$n70s8 y$n67s8 y$n76s8 y$n72s8 y$n68s8 y$n87s8 y$n71s8 y$n89s8 y$n77s8 y$n66s8 y$n86s8 y$n81s8 y$n75s8 y$n88s8 y$n90s8 y$n74s8 y$n0s8))
(assert (distinct y$n0s10 y$n10s10 y$n11s10 y$n20s10 y$n30s10 y$n17s10 y$n25s10 y$n21s10 y$n29s10 y$n31s10 y$n32s10 y$n48s10 y$n40s10 y$n56s10 y$n60s10 y$n38s10 y$n39s10 y$n108s10 y$n86s10 y$n118s10 y$n119s10 y$n151s10 y$n215s10 y$n268s10 y$n332s10 y$n460s10 y$n652s10 y$n908s10))
(assert (distinct y$n9s32 y$n69s32 y$n13s32 y$n32s32 y$n17s32 y$n83s32 y$n22s32 y$n65s32 y$n23s32 y$n73s32 y$n24s32 y$n79s32 y$n25s32 y$n82s32 y$n26s32 y$n78s32 y$n30s32 y$n84s32 y$n31s32 y$n85s32 y$n80s32 y$n33s32 y$n70s32 y$n34s32 y$n67s32 y$n38s32 y$n76s32 y$n43s32 y$n72s32 y$n59s32 y$n68s32 y$n87s32 y$n89s32 y$n71s32 y$n90s32 y$n122s32 y$n77s32 y$n243s32 y$n66s32 y$n244s32 y$n86s32 y$n303s32 y$n81s32 y$n305s32 y$n75s32 y$n306s32 y$n88s32 y$n609s32 y$n610s32 y$n74s32 y$n0s32 y$n2s32 y$n1s32 y$n255s32))
(assert (= y$w$6_op (Concat_32_10_22 y$decoder.state y$n0s22)))
(assert (= y$8 (= y$n9s32 y$w$6_op)))
(assert (= y$11 (= y$n13s32 y$w$6_op)))
(assert (= y$14 (= y$n17s32 y$w$6_op)))
(assert (= y$17 (= y$n22s32 y$w$6_op)))
(assert (= y$20 (= y$n23s32 y$w$6_op)))
(assert (= y$23 (= y$n24s32 y$w$6_op)))
(assert (= y$26 (= y$n25s32 y$w$6_op)))
(assert (= y$29 (= y$n26s32 y$w$6_op)))
(assert (= y$32 (= y$n30s32 y$w$6_op)))
(assert (= y$35 (= y$n31s32 y$w$6_op)))
(assert (= y$37 (= y$n32s32 y$w$6_op)))
(assert (= y$40 (= y$n33s32 y$w$6_op)))
(assert (= y$43 (= y$n34s32 y$w$6_op)))
(assert (= y$46 (= y$n38s32 y$w$6_op)))
(assert (= y$49 (= y$n43s32 y$w$6_op)))
(assert (= y$52 (= y$n59s32 y$w$6_op)))
(assert (= y$54 (= y$n76s32 y$w$6_op)))
(assert (= y$57 (= y$n89s32 y$w$6_op)))
(assert (= y$60 (= y$n90s32 y$w$6_op)))
(assert (= y$62 (= y$n122s32 y$w$6_op)))
(assert (= y$65 (= y$n243s32 y$w$6_op)))
(assert (= y$68 (= y$n244s32 y$w$6_op)))
(assert (= y$71 (= y$n303s32 y$w$6_op)))
(assert (= y$74 (= y$n305s32 y$w$6_op)))
(assert (= y$77 (= y$n306s32 y$w$6_op)))
(assert (= y$80 (= y$n609s32 y$w$6_op)))
(assert (= y$82 (= y$n610s32 y$w$6_op)))
(assert (= y$s$46_op (ite y$82 y$n74s32 y$n0s32)))
(assert (= y$s$47_op (ite y$80 y$n90s32 y$s$46_op)))
(assert (= y$s$48_op (ite y$77 y$n88s32 y$s$47_op)))
(assert (= y$s$49_op (ite y$74 y$n75s32 y$s$48_op)))
(assert (= y$s$50_op (ite y$71 y$n81s32 y$s$49_op)))
(assert (= y$s$51_op (ite y$68 y$n86s32 y$s$50_op)))
(assert (= y$s$52_op (ite y$65 y$n66s32 y$s$51_op)))
(assert (= y$s$53_op (ite y$62 y$n77s32 y$s$52_op)))
(assert (= y$s$54_op (ite y$60 y$n89s32 y$s$53_op)))
(assert (= y$s$55_op (ite y$57 y$n71s32 y$s$54_op)))
(assert (= y$s$56_op (ite y$54 y$n87s32 y$s$55_op)))
(assert (= y$s$30_op (ite y$52 y$n68s32 y$s$56_op)))
(assert (= y$s$31_op (ite y$49 y$n72s32 y$s$30_op)))
(assert (= y$s$32_op (ite y$46 y$n76s32 y$s$31_op)))
(assert (= y$s$33_op (ite y$43 y$n67s32 y$s$32_op)))
(assert (= y$s$34_op (ite y$40 y$n70s32 y$s$33_op)))
(assert (= y$s$35_op (ite y$37 y$n80s32 y$s$34_op)))
(assert (= y$s$36_op (ite y$35 y$n85s32 y$s$35_op)))
(assert (= y$s$37_op (ite y$32 y$n84s32 y$s$36_op)))
(assert (= y$s$38_op (ite y$29 y$n78s32 y$s$37_op)))
(assert (= y$s$39_op (ite y$26 y$n82s32 y$s$38_op)))
(assert (= y$s$40_op (ite y$23 y$n79s32 y$s$39_op)))
(assert (= y$s$41_op (ite y$20 y$n73s32 y$s$40_op)))
(assert (= y$s$42_op (ite y$17 y$n65s32 y$s$41_op)))
(assert (= y$s$43_op (ite y$14 y$n83s32 y$s$42_op)))
(assert (= y$s$44_op (ite y$11 y$n32s32 y$s$43_op)))
(assert (= y$w$1_op (ite y$8 y$n69s32 y$s$44_op)))
(assert (= y$222 (ite y$82 y$n74s8 y$n0s8)))
(assert (= y$223 (ite y$80 y$n90s8 y$222)))
(assert (= y$224 (ite y$77 y$n88s8 y$223)))
(assert (= y$225 (ite y$74 y$n75s8 y$224)))
(assert (= y$226 (ite y$71 y$n81s8 y$225)))
(assert (= y$227 (ite y$68 y$n86s8 y$226)))
(assert (= y$228 (ite y$65 y$n66s8 y$227)))
(assert (= y$229 (ite y$62 y$n77s8 y$228)))
(assert (= y$230 (ite y$60 y$n89s8 y$229)))
(assert (= y$231 (ite y$57 y$n71s8 y$230)))
(assert (= y$232 (ite y$54 y$n87s8 y$231)))
(assert (= y$233 (ite y$52 y$n68s8 y$232)))
(assert (= y$234 (ite y$49 y$n72s8 y$233)))
(assert (= y$235 (ite y$46 y$n76s8 y$234)))
(assert (= y$236 (ite y$43 y$n67s8 y$235)))
(assert (= y$237 (ite y$40 y$n70s8 y$236)))
(assert (= y$238 (ite y$37 y$n80s8 y$237)))
(assert (= y$239 (ite y$35 y$n85s8 y$238)))
(assert (= y$240 (ite y$32 y$n84s8 y$239)))
(assert (= y$241 (ite y$29 y$n78s8 y$240)))
(assert (= y$242 (ite y$26 y$n82s8 y$241)))
(assert (= y$243 (ite y$23 y$n79s8 y$242)))
(assert (= y$244 (ite y$20 y$n73s8 y$243)))
(assert (= y$245 (ite y$17 y$n65s8 y$244)))
(assert (= y$246 (ite y$14 y$n83s8 y$245)))
(assert (= y$247 (ite y$11 y$n32s8 y$246)))
(assert (= y$248 (ite y$8 y$n69s8 y$247)))
(assert (= y$139 (Extract_8_7_0_32 y$w$1_op)))
(assert (= y$248 y$139))
(assert (= y$w$2_op (Concat_32_8_24 y$139 y$n0s24)))
(assert (= y$414 (not (= y$n255s32 y$w$2_op))))
(assert (= y$415 (= y$prop y$414)))
(assert (= y$253 (not (= y$n0s32 y$w$2_op))))
(assert (= y$255 (Extract_9_8_0_10 y$decoder.state)))
(assert (= y$w$8_op (Concat_32_1_9_22 false y$255 y$n0s22)))
(assert (= y$s$57_op (ite y$253 y$n0s32 y$w$8_op)))
(assert (= y$262 (Extract_1_0_0_10 y$encoder.shiftreg)))
(assert (= y$s$58_op (ite y$262 y$n2s32 y$n1s32)))
(assert (= y$w$3_op (Add_32_32_32 y$s$57_op y$s$58_op)))
(assert (= y$270 (Extract_10_9_0_32 y$w$3_op)))
(assert (= y$272 (= y$decoder.state$next y$270)))
(assert (= y$274 (Extract_9_9_1_10 y$encoder.shiftreg)))
(assert (= y$w$11_op (Concat_32_9_23 y$274 y$n0s23)))
(assert (= y$279 (= y$n1s32 y$w$11_op)))
(assert (= y$w$12_op (Concat_32_5_27 y$addr y$n0s27)))
(assert (= y$s$89_op (Le_1_32_32 y$w$12_op y$n26s32)))
(assert (= y$s$60_op (Add_32_32_32 y$n65s32 y$w$12_op)))
(assert (= y$s$117_op (ite y$s$89_op y$s$60_op y$n32s32)))
(assert (= y$291 (Extract_8_7_0_32 y$s$60_op)))
(assert (= y$292 (ite y$s$89_op y$291 y$n32s8)))
(assert (= y$290 (Extract_8_7_0_32 y$s$117_op)))
(assert (= y$292 y$290))
(assert (= y$w$5_op (Concat_32_8_24 y$290 y$n0s24)))
(assert (= y$296 (= y$n69s32 y$w$5_op)))
(assert (= y$298 (= y$n32s32 y$w$5_op)))
(assert (= y$300 (= y$n83s32 y$w$5_op)))
(assert (= y$302 (= y$n65s32 y$w$5_op)))
(assert (= y$304 (= y$n73s32 y$w$5_op)))
(assert (= y$306 (= y$n79s32 y$w$5_op)))
(assert (= y$308 (= y$n82s32 y$w$5_op)))
(assert (= y$310 (= y$n78s32 y$w$5_op)))
(assert (= y$312 (= y$n84s32 y$w$5_op)))
(assert (= y$314 (= y$n85s32 y$w$5_op)))
(assert (= y$316 (= y$n80s32 y$w$5_op)))
(assert (= y$318 (= y$n70s32 y$w$5_op)))
(assert (= y$320 (= y$n67s32 y$w$5_op)))
(assert (= y$322 (= y$n76s32 y$w$5_op)))
(assert (= y$324 (= y$n72s32 y$w$5_op)))
(assert (= y$326 (= y$n68s32 y$w$5_op)))
(assert (= y$328 (= y$n87s32 y$w$5_op)))
(assert (= y$330 (= y$n71s32 y$w$5_op)))
(assert (= y$332 (= y$n89s32 y$w$5_op)))
(assert (= y$334 (= y$n77s32 y$w$5_op)))
(assert (= y$336 (= y$n66s32 y$w$5_op)))
(assert (= y$338 (= y$n86s32 y$w$5_op)))
(assert (= y$340 (= y$n81s32 y$w$5_op)))
(assert (= y$342 (= y$n75s32 y$w$5_op)))
(assert (= y$344 (= y$n88s32 y$w$5_op)))
(assert (= y$346 (= y$n90s32 y$w$5_op)))
(assert (= y$348 (= y$n74s32 y$w$5_op)))
(assert (= y$s$90_op (ite y$348 y$n908s10 y$n0s10)))
(assert (= y$s$91_op (ite y$346 y$n652s10 y$s$90_op)))
(assert (= y$s$92_op (ite y$344 y$n460s10 y$s$91_op)))
(assert (= y$s$93_op (ite y$342 y$n332s10 y$s$92_op)))
(assert (= y$s$94_op (ite y$340 y$n268s10 y$s$93_op)))
(assert (= y$s$95_op (ite y$338 y$n215s10 y$s$94_op)))
(assert (= y$s$96_op (ite y$336 y$n151s10 y$s$95_op)))
(assert (= y$s$97_op (ite y$334 y$n119s10 y$s$96_op)))
(assert (= y$s$98_op (ite y$332 y$n118s10 y$s$97_op)))
(assert (= y$s$99_op (ite y$330 y$n86s10 y$s$98_op)))
(assert (= y$s$100_op (ite y$328 y$n108s10 y$s$99_op)))
(assert (= y$s$101_op (ite y$326 y$n39s10 y$s$100_op)))
(assert (= y$s$102_op (ite y$324 y$n38s10 y$s$101_op)))
(assert (= y$s$103_op (ite y$322 y$n60s10 y$s$102_op)))
(assert (= y$s$104_op (ite y$320 y$n56s10 y$s$103_op)))
(assert (= y$s$105_op (ite y$318 y$n40s10 y$s$104_op)))
(assert (= y$s$106_op (ite y$316 y$n48s10 y$s$105_op)))
(assert (= y$s$107_op (ite y$314 y$n32s10 y$s$106_op)))
(assert (= y$s$108_op (ite y$312 y$n31s10 y$s$107_op)))
(assert (= y$s$109_op (ite y$310 y$n29s10 y$s$108_op)))
(assert (= y$s$110_op (ite y$308 y$n21s10 y$s$109_op)))
(assert (= y$s$111_op (ite y$306 y$n25s10 y$s$110_op)))
(assert (= y$s$112_op (ite y$304 y$n17s10 y$s$111_op)))
(assert (= y$s$113_op (ite y$302 y$n30s10 y$s$112_op)))
(assert (= y$s$114_op (ite y$300 y$n20s10 y$s$113_op)))
(assert (= y$s$115_op (ite y$298 y$n11s10 y$s$114_op)))
(assert (= y$s$116_op (ite y$296 y$n10s10 y$s$115_op)))
(assert (= y$w$13_op (Concat_10_9_1 y$274 false)))
(assert (= y$encoder.shiftreg$next_rhs_op (ite y$279 y$s$116_op y$w$13_op)))
(assert (= y$408 (= y$encoder.shiftreg$next y$encoder.shiftreg$next_rhs_op)))
(assert (= y$409 (and y$272 y$408)))
(assert (= y$prop$next (not y$424)))
(assert (= y$w$6$next_op (Concat_32_10_22 y$decoder.state$next y$n0s22)))
(assert (= y$427 (= y$n9s32 y$w$6$next_op)))
(assert (= y$428 (= y$n13s32 y$w$6$next_op)))
(assert (= y$429 (= y$n17s32 y$w$6$next_op)))
(assert (= y$430 (= y$n22s32 y$w$6$next_op)))
(assert (= y$431 (= y$n23s32 y$w$6$next_op)))
(assert (= y$432 (= y$n24s32 y$w$6$next_op)))
(assert (= y$433 (= y$n25s32 y$w$6$next_op)))
(assert (= y$434 (= y$n26s32 y$w$6$next_op)))
(assert (= y$435 (= y$n30s32 y$w$6$next_op)))
(assert (= y$436 (= y$n31s32 y$w$6$next_op)))
(assert (= y$437 (= y$n32s32 y$w$6$next_op)))
(assert (= y$438 (= y$n33s32 y$w$6$next_op)))
(assert (= y$439 (= y$n34s32 y$w$6$next_op)))
(assert (= y$440 (= y$n38s32 y$w$6$next_op)))
(assert (= y$441 (= y$n43s32 y$w$6$next_op)))
(assert (= y$442 (= y$n59s32 y$w$6$next_op)))
(assert (= y$443 (= y$n76s32 y$w$6$next_op)))
(assert (= y$444 (= y$n89s32 y$w$6$next_op)))
(assert (= y$445 (= y$n90s32 y$w$6$next_op)))
(assert (= y$446 (= y$n122s32 y$w$6$next_op)))
(assert (= y$447 (= y$n243s32 y$w$6$next_op)))
(assert (= y$448 (= y$n244s32 y$w$6$next_op)))
(assert (= y$449 (= y$n303s32 y$w$6$next_op)))
(assert (= y$450 (= y$n305s32 y$w$6$next_op)))
(assert (= y$451 (= y$n306s32 y$w$6$next_op)))
(assert (= y$452 (= y$n609s32 y$w$6$next_op)))
(assert (= y$453 (= y$n610s32 y$w$6$next_op)))
(assert (= y$s$46$next_op (ite y$453 y$n74s32 y$n0s32)))
(assert (= y$s$47$next_op (ite y$452 y$n90s32 y$s$46$next_op)))
(assert (= y$s$48$next_op (ite y$451 y$n88s32 y$s$47$next_op)))
(assert (= y$s$49$next_op (ite y$450 y$n75s32 y$s$48$next_op)))
(assert (= y$s$50$next_op (ite y$449 y$n81s32 y$s$49$next_op)))
(assert (= y$s$51$next_op (ite y$448 y$n86s32 y$s$50$next_op)))
(assert (= y$s$52$next_op (ite y$447 y$n66s32 y$s$51$next_op)))
(assert (= y$s$53$next_op (ite y$446 y$n77s32 y$s$52$next_op)))
(assert (= y$s$54$next_op (ite y$445 y$n89s32 y$s$53$next_op)))
(assert (= y$s$55$next_op (ite y$444 y$n71s32 y$s$54$next_op)))
(assert (= y$s$56$next_op (ite y$443 y$n87s32 y$s$55$next_op)))
(assert (= y$s$30$next_op (ite y$442 y$n68s32 y$s$56$next_op)))
(assert (= y$s$31$next_op (ite y$441 y$n72s32 y$s$30$next_op)))
(assert (= y$s$32$next_op (ite y$440 y$n76s32 y$s$31$next_op)))
(assert (= y$s$33$next_op (ite y$439 y$n67s32 y$s$32$next_op)))
(assert (= y$s$34$next_op (ite y$438 y$n70s32 y$s$33$next_op)))
(assert (= y$s$35$next_op (ite y$437 y$n80s32 y$s$34$next_op)))
(assert (= y$s$36$next_op (ite y$436 y$n85s32 y$s$35$next_op)))
(assert (= y$s$37$next_op (ite y$435 y$n84s32 y$s$36$next_op)))
(assert (= y$s$38$next_op (ite y$434 y$n78s32 y$s$37$next_op)))
(assert (= y$s$39$next_op (ite y$433 y$n82s32 y$s$38$next_op)))
(assert (= y$s$40$next_op (ite y$432 y$n79s32 y$s$39$next_op)))
(assert (= y$s$41$next_op (ite y$431 y$n73s32 y$s$40$next_op)))
(assert (= y$s$42$next_op (ite y$430 y$n65s32 y$s$41$next_op)))
(assert (= y$s$43$next_op (ite y$429 y$n83s32 y$s$42$next_op)))
(assert (= y$s$44$next_op (ite y$428 y$n32s32 y$s$43$next_op)))
(assert (= y$w$1$next_op (ite y$427 y$n69s32 y$s$44$next_op)))
(assert (= y$535 (ite y$453 y$n74s8 y$n0s8)))
(assert (= y$536 (ite y$452 y$n90s8 y$535)))
(assert (= y$537 (ite y$451 y$n88s8 y$536)))
(assert (= y$538 (ite y$450 y$n75s8 y$537)))
(assert (= y$539 (ite y$449 y$n81s8 y$538)))
(assert (= y$540 (ite y$448 y$n86s8 y$539)))
(assert (= y$541 (ite y$447 y$n66s8 y$540)))
(assert (= y$542 (ite y$446 y$n77s8 y$541)))
(assert (= y$543 (ite y$445 y$n89s8 y$542)))
(assert (= y$544 (ite y$444 y$n71s8 y$543)))
(assert (= y$545 (ite y$443 y$n87s8 y$544)))
(assert (= y$546 (ite y$442 y$n68s8 y$545)))
(assert (= y$547 (ite y$441 y$n72s8 y$546)))
(assert (= y$548 (ite y$440 y$n76s8 y$547)))
(assert (= y$549 (ite y$439 y$n67s8 y$548)))
(assert (= y$550 (ite y$438 y$n70s8 y$549)))
(assert (= y$551 (ite y$437 y$n80s8 y$550)))
(assert (= y$552 (ite y$436 y$n85s8 y$551)))
(assert (= y$553 (ite y$435 y$n84s8 y$552)))
(assert (= y$554 (ite y$434 y$n78s8 y$553)))
(assert (= y$555 (ite y$433 y$n82s8 y$554)))
(assert (= y$556 (ite y$432 y$n79s8 y$555)))
(assert (= y$557 (ite y$431 y$n73s8 y$556)))
(assert (= y$558 (ite y$430 y$n65s8 y$557)))
(assert (= y$559 (ite y$429 y$n83s8 y$558)))
(assert (= y$560 (ite y$428 y$n32s8 y$559)))
(assert (= y$561 (ite y$427 y$n69s8 y$560)))
(assert (= y$508 (Extract_8_7_0_32 y$w$1$next_op)))
(assert (= y$561 y$508))
(assert (= y$w$2$next_op (Concat_32_8_24 y$508 y$n0s24)))
(assert (= y$565 (not (= y$n255s32 y$w$2$next_op))))
(assert (= y$787 (and y$prop y$414 y$415 y$565 y$409 y$424)))
(assert y$787)
(check-sat)
(exit)
